NAME : B-n57-k7.646360.tour
COMMENT : Length = 646360
COMMENT : Found by LKH [Keld Helsgaun] Sun Dec 17 19:10:58 2017
TYPE : TOUR
DIMENSION : 63
TOUR_SECTION
1
28
34
14
50
45
22
11
4
58
17
25
27
20
42
35
18
52
10
62
55
36
41
30
5
24
47
6
60
49
46
16
12
32
7
63
23
15
8
33
44
48
21
61
2
56
3
31
51
53
43
40
38
59
57
19
26
29
9
13
54
39
37
-1
EOF
